0011100000000000
0011111111100000
0000000000110000
0000000000110000
0000000000110000
0000100000110000
0000100000110000
0000000000110000
0000000000110000
0000000000110000
0000000000110000
0011111111100000
0011111111100000
0000000000000000
0000000000000000
0000000000000000